%%% static parameters %%%
timespan = 1;
Fact = [4];
Distr1 = [15];
Distr2 = [30];
Clients_N = [1000];
Demand_W = [15];
Lt0 = [4];
Lt1 = [4];
SS_ = [0.85];
DS_D = [8];
K = [200];
MA = [500];
%%% dynamic parameters %%%
lost_ratio_sales_ret_th = 0.8177868351737517;
lost_ratio_sales_ret_w = 33;
lost_ratio_sales_dis_th = 0.7490248279163738;
lost_ratio_sales_dis_w = 78;
lost_ratio_sales_fac_th = 0.40359577310848516;
lost_ratio_sales_fac_w = 88;
stock_customer_MA_mean_relative_th = 0.8403503962568852;
stock_customer_MA_mean_relative_w = 24;
stock_distributor_MA_mean_relative_th = 0.00978223641356768;
stock_distributor_MA_mean_relative_w = 61;
stock_retailer_MA_mean_relative_th = 0.003056999495590018;
stock_retailer_MA_mean_relative_w = 34;
stock_factory_MA_mean_relative_th = 0.4275573583181357;
stock_factory_MA_mean_relative_w = 51;
